c Arquivo convertido de cubic_600.txt
p edge 600 900
e 0 219
e 0 298
e 0 576
e 1 7
e 1 513
e 1 596
e 2 267
e 2 571
e 2 587
e 3 368
e 3 389
e 3 423
e 4 277
e 4 285
e 4 383
e 5 350
e 5 365
e 5 531
e 6 40
e 6 411
e 6 569
e 7 290
e 7 296
e 8 172
e 8 234
e 8 402
e 9 170
e 9 257
e 9 570
e 10 133
e 10 404
e 10 581
e 11 303
e 11 340
e 11 592
e 12 28
e 12 51
e 12 128
e 13 73
e 13 165
e 13 180
e 14 358
e 14 424
e 14 479
e 15 256
e 15 371
e 15 573
e 16 162
e 16 456
e 16 558
e 17 208
e 17 255
e 17 422
e 18 53
e 18 63
e 18 174
e 19 197
e 19 252
e 19 452
e 20 171
e 20 297
e 20 309
e 21 338
e 21 402
e 21 591
e 22 122
e 22 274
e 22 314
e 23 141
e 23 171
e 23 390
e 24 40
e 24 423
e 24 564
e 25 178
e 25 363
e 25 514
e 26 76
e 26 337
e 26 533
e 27 48
e 27 171
e 27 226
e 28 318
e 28 559
e 29 266
e 29 532
e 29 559
e 30 427
e 30 445
e 30 450
e 31 214
e 31 246
e 31 445
e 32 133
e 32 190
e 32 298
e 33 204
e 33 407
e 33 472
e 34 226
e 34 264
e 34 309
e 35 82
e 35 258
e 35 395
e 36 219
e 36 251
e 36 498
e 37 146
e 37 163
e 37 232
e 38 320
e 38 392
e 38 499
e 39 177
e 39 331
e 39 481
e 40 63
e 41 161
e 41 446
e 41 522
e 42 183
e 42 421
e 42 543
e 43 92
e 43 184
e 43 229
e 44 66
e 44 110
e 44 475
e 45 184
e 45 198
e 45 211
e 46 280
e 46 369
e 46 399
e 47 158
e 47 227
e 47 514
e 48 145
e 48 383
e 49 224
e 49 258
e 49 401
e 50 102
e 50 365
e 50 492
e 51 79
e 51 505
e 52 116
e 52 340
e 52 583
e 53 346
e 53 595
e 54 84
e 54 361
e 54 502
e 55 142
e 55 455
e 55 582
e 56 76
e 56 147
e 56 474
e 57 167
e 57 253
e 57 293
e 58 203
e 58 395
e 58 564
e 59 118
e 59 371
e 59 387
e 60 81
e 60 294
e 60 343
e 61 132
e 61 580
e 61 596
e 62 477
e 62 507
e 62 560
e 63 577
e 64 305
e 64 470
e 64 548
e 65 409
e 65 459
e 65 473
e 66 243
e 66 540
e 67 139
e 67 170
e 67 333
e 68 86
e 68 218
e 68 474
e 69 135
e 69 201
e 69 306
e 70 156
e 70 524
e 70 557
e 71 128
e 71 170
e 71 292
e 72 105
e 72 137
e 72 394
e 73 231
e 73 568
e 74 292
e 74 439
e 74 440
e 75 83
e 75 380
e 75 537
e 76 291
e 77 103
e 77 300
e 77 552
e 78 342
e 78 458
e 78 592
e 79 364
e 79 588
e 80 306
e 80 418
e 80 514
e 81 315
e 81 454
e 82 99
e 82 469
e 83 148
e 83 492
e 84 349
e 84 397
e 85 245
e 85 327
e 85 585
e 86 528
e 86 536
e 87 120
e 87 260
e 87 348
e 88 249
e 88 342
e 88 461
e 89 273
e 89 366
e 89 526
e 90 92
e 90 246
e 90 555
e 91 179
e 91 431
e 91 596
e 92 520
e 93 236
e 93 370
e 93 521
e 94 339
e 94 580
e 94 590
e 95 348
e 95 357
e 95 502
e 96 274
e 96 442
e 96 556
e 97 444
e 97 492
e 97 542
e 98 268
e 98 355
e 98 364
e 99 115
e 99 335
e 100 270
e 100 293
e 100 427
e 101 119
e 101 164
e 101 345
e 102 136
e 102 261
e 103 422
e 103 425
e 104 140
e 104 283
e 104 555
e 105 221
e 105 377
e 106 126
e 106 452
e 106 462
e 107 258
e 107 360
e 107 568
e 108 334
e 108 500
e 108 598
e 109 255
e 109 479
e 109 510
e 110 218
e 110 476
e 111 368
e 111 424
e 111 433
e 112 453
e 112 517
e 112 582
e 113 380
e 113 428
e 113 578
e 114 491
e 114 532
e 114 560
e 115 331
e 115 446
e 116 187
e 116 477
e 117 159
e 117 344
e 117 353
e 118 305
e 118 377
e 119 244
e 119 520
e 120 265
e 120 301
e 121 156
e 121 310
e 121 318
e 122 152
e 122 430
e 123 153
e 123 285
e 123 401
e 124 160
e 124 318
e 124 593
e 125 263
e 125 393
e 125 420
e 126 406
e 126 462
e 127 272
e 127 367
e 127 406
e 128 460
e 129 206
e 129 269
e 129 370
e 130 330
e 130 332
e 130 579
e 131 213
e 131 275
e 131 345
e 132 217
e 132 341
e 133 361
e 134 136
e 134 355
e 134 476
e 135 167
e 135 219
e 136 469
e 137 161
e 137 523
e 138 309
e 138 321
e 138 569
e 139 205
e 139 311
e 140 467
e 140 471
e 141 290
e 141 549
e 142 378
e 142 381
e 143 362
e 143 372
e 143 419
e 144 299
e 144 482
e 144 535
e 145 181
e 145 398
e 146 186
e 146 202
e 147 344
e 147 591
e 148 442
e 148 507
e 149 155
e 149 270
e 149 519
e 150 378
e 150 463
e 150 586
e 151 233
e 151 295
e 151 473
e 152 501
e 152 547
e 153 155
e 153 278
e 154 270
e 154 518
e 154 570
e 155 561
e 156 240
e 157 284
e 157 429
e 157 519
e 158 393
e 158 574
e 159 340
e 159 484
e 160 400
e 160 522
e 161 227
e 162 311
e 162 528
e 163 360
e 163 366
e 164 326
e 164 417
e 165 447
e 165 576
e 166 294
e 166 352
e 166 557
e 167 265
e 168 184
e 168 490
e 168 497
e 169 242
e 169 254
e 169 399
e 172 282
e 172 490
e 173 244
e 173 283
e 173 506
e 174 220
e 174 439
e 175 308
e 175 403
e 175 558
e 176 231
e 176 427
e 176 582
e 177 230
e 177 353
e 178 179
e 178 296
e 179 333
e 180 223
e 180 441
e 181 347
e 181 376
e 182 276
e 182 291
e 182 306
e 183 223
e 183 321
e 185 341
e 185 480
e 185 525
e 186 191
e 186 300
e 187 231
e 187 480
e 188 328
e 188 436
e 188 586
e 189 347
e 189 373
e 189 547
e 190 393
e 190 456
e 191 207
e 191 279
e 192 279
e 192 490
e 192 538
e 193 226
e 193 516
e 193 531
e 194 215
e 194 425
e 194 552
e 195 381
e 195 443
e 195 507
e 196 457
e 196 509
e 196 572
e 197 247
e 197 310
e 198 230
e 198 277
e 199 443
e 199 534
e 199 598
e 200 290
e 200 408
e 200 434
e 201 455
e 201 546
e 202 230
e 202 307
e 203 420
e 203 438
e 204 286
e 204 440
e 205 302
e 205 568
e 206 261
e 206 546
e 207 461
e 207 522
e 208 390
e 208 491
e 209 363
e 209 386
e 209 495
e 210 483
e 210 521
e 210 589
e 211 213
e 211 488
e 212 250
e 212 339
e 212 484
e 213 465
e 214 343
e 214 360
e 215 286
e 215 311
e 216 240
e 216 335
e 216 504
e 217 293
e 217 442
e 218 283
e 220 323
e 220 581
e 221 505
e 221 516
e 222 232
e 222 323
e 222 542
e 223 541
e 224 367
e 224 533
e 225 235
e 225 429
e 225 431
e 227 416
e 228 337
e 228 410
e 228 432
e 229 454
e 229 571
e 232 333
e 233 269
e 233 388
e 234 235
e 234 375
e 235 421
e 236 268
e 236 487
e 237 249
e 237 292
e 237 357
e 238 536
e 238 588
e 238 594
e 239 485
e 239 502
e 239 535
e 240 589
e 241 254
e 241 338
e 241 489
e 242 402
e 242 446
e 243 388
e 243 423
e 244 531
e 245 267
e 245 284
e 246 435
e 247 281
e 247 331
e 248 451
e 248 486
e 248 510
e 249 350
e 250 465
e 250 589
e 251 382
e 251 593
e 252 418
e 252 588
e 253 289
e 253 523
e 254 374
e 255 278
e 256 395
e 256 521
e 257 549
e 257 561
e 259 420
e 259 535
e 259 550
e 260 322
e 260 556
e 261 443
e 262 426
e 262 544
e 262 553
e 263 407
e 263 493
e 264 275
e 264 413
e 265 450
e 266 322
e 266 356
e 267 570
e 268 497
e 269 566
e 271 352
e 271 418
e 271 594
e 272 485
e 272 590
e 273 351
e 273 498
e 274 322
e 275 410
e 276 324
e 276 539
e 277 329
e 278 405
e 279 597
e 280 448
e 280 526
e 281 320
e 281 564
e 282 288
e 282 470
e 284 482
e 285 518
e 286 287
e 287 317
e 287 332
e 288 494
e 288 495
e 289 416
e 289 419
e 291 345
e 294 495
e 295 481
e 295 537
e 296 501
e 297 334
e 297 433
e 298 517
e 299 480
e 299 569
e 300 430
e 301 470
e 301 498
e 302 465
e 302 553
e 303 324
e 303 329
e 304 315
e 304 584
e 304 593
e 305 414
e 307 351
e 307 464
e 308 329
e 308 438
e 310 534
e 312 405
e 312 466
e 312 599
e 313 408
e 313 459
e 313 580
e 314 374
e 314 513
e 315 479
e 316 412
e 316 493
e 316 509
e 317 361
e 317 503
e 319 391
e 319 414
e 319 437
e 320 534
e 321 478
e 323 370
e 324 409
e 325 359
e 325 392
e 325 553
e 326 512
e 326 539
e 327 359
e 327 417
e 328 506
e 328 537
e 330 523
e 330 552
e 332 592
e 334 354
e 335 491
e 336 460
e 336 486
e 336 540
e 337 541
e 338 375
e 339 577
e 341 466
e 342 396
e 343 349
e 344 415
e 346 474
e 346 496
e 347 372
e 348 429
e 349 353
e 350 432
e 351 355
e 352 358
e 354 401
e 354 532
e 356 357
e 356 508
e 358 398
e 359 519
e 362 389
e 362 562
e 363 525
e 364 501
e 365 488
e 366 545
e 367 468
e 368 574
e 369 494
e 369 595
e 371 409
e 372 513
e 373 567
e 373 587
e 374 527
e 375 510
e 376 550
e 376 577
e 377 378
e 379 382
e 379 389
e 379 565
e 380 432
e 381 538
e 382 410
e 383 597
e 384 462
e 384 524
e 384 547
e 385 406
e 385 428
e 385 460
e 386 472
e 386 512
e 387 515
e 387 583
e 388 448
e 390 536
e 391 554
e 391 573
e 392 565
e 394 456
e 394 584
e 396 562
e 396 583
e 397 472
e 397 555
e 398 550
e 399 529
e 400 489
e 400 597
e 403 487
e 403 530
e 404 412
e 404 469
e 405 457
e 407 476
e 408 578
e 411 561
e 411 571
e 412 530
e 413 494
e 413 503
e 414 525
e 415 506
e 415 527
e 416 453
e 417 508
e 419 518
e 421 566
e 422 575
e 424 505
e 425 489
e 426 434
e 426 488
e 428 595
e 430 508
e 431 453
e 433 538
e 434 511
e 435 450
e 435 485
e 436 549
e 436 586
e 437 467
e 437 520
e 438 511
e 439 463
e 440 563
e 441 461
e 441 598
e 444 524
e 444 581
e 445 599
e 447 483
e 447 554
e 448 557
e 449 451
e 449 468
e 449 516
e 451 471
e 452 475
e 454 558
e 455 530
e 457 544
e 458 459
e 458 545
e 463 585
e 464 481
e 464 486
e 466 493
e 467 591
e 468 554
e 471 477
e 473 556
e 475 543
e 478 527
e 478 545
e 482 566
e 483 500
e 484 590
e 487 504
e 496 548
e 496 584
e 497 504
e 499 515
e 499 548
e 500 575
e 503 526
e 509 540
e 511 560
e 512 562
e 515 567
e 517 579
e 528 541
e 529 565
e 529 587
e 533 542
e 539 572
e 543 551
e 544 551
e 546 563
e 551 567
e 559 563
e 572 575
e 573 578
e 574 599
e 576 594
e 579 585
